n_res = 4;
rc = [ 24, 32, 32, 28 ];
n_tasks = 30;
d = [ 7, 4, 1, 3, 6, 8, 9, 5, 8, 3, 3, 9, 5, 7, 2, 7, 10, 2, 2, 8, 7, 8, 6, 6, 10, 5, 1, 9, 3, 2 ];
rr = [| 4, 5, 3, 1, 3, 2, 6, 6, 7, 4, 3, 4, 1, 2, 9, 4, 3, 4, 4, 9, 2, 8, 6, 1, 7, 3, 1, 7, 9, 2
      | 1, 3, 9, 9, 5, 2, 5, 3, 9, 9, 2, 9, 3, 7, 8, 8, 2, 5, 2, 10, 2, 4, 8, 1, 7, 4, 1, 1, 4, 7
      | 10, 5, 5, 10, 3, 5, 10, 1, 8, 6, 7, 10, 5, 2, 5, 2, 4, 5, 1, 8, 8, 6, 2, 9, 6, 4, 2, 9, 5, 3
      | 1, 5, 5, 1, 1, 10, 6, 9, 8, 5, 2, 1, 1, 6, 7, 4, 3, 9, 7, 10, 6, 6, 2, 10, 2, 7, 4, 4, 10, 9 |];
suc = [ { 2 }, 
        { 1 }, 
        { 4 }, 
        { 3 }, 
        { 6 }, 
        { 5 }, 
        { 8 }, 
        { 7 }, 
        { 10 }, 
        { 9 }, 
        { 12 }, 
        { 11 }, 
        { 14 }, 
        { 13 }, 
        { 16 }, 
        { 15 }, 
        { 18 }, 
        { 17 }, 
        { 20 }, 
        { 19 }, 
        { 22 }, 
        { 21 }, 
        { 24 }, 
        { 23 }, 
        { 26 }, 
        { 25 }, 
        { 28 }, 
        { 27 }, 
        { 30 }, 
        { 29 }]; 
